
  32    1
  10

   0   0  10 2 3 4 5 6 7 8 12 13 14 
   3   1   7 28 26 21 20 11 10 9 
   8   5   7 29 28 25 19 16 15 11 
  10   4   7 26 25 21 20 19 17 15 
   7   4   5 27 25 19 17 15 
   8   6   5 31 25 20 19 15 
   1   7   5 28 20 19 18 17 
   5   7   5 30 26 24 23 19 
  10   5   4 29 25 22 18 
   9   8   2 19 15 
   3   6   4 27 24 23 22 
   4   7   3 26 24 19 
   3   7   3 25 22 18 
   4   4   2 19 18 
   3   9   2 22 18 
   8   6   2 22 18 
   9   7   2 24 23 
   7   6   1 23 
   7   3   1 22 
   7   2   1 23 
   3  10   1 22 
   9   9   1 32
   5   4   1 32
   4   7   1 32
   4   5   1 32
   1   6   1 32
   8   7   1 32
   5   8   1 32
   8   6   1 32
   1   4   1 32
   1  10   1 32
   0   0   0 
